NAME : eil76.tsp.opt.tour
COMMENT : 
TYPE : TOUR
DIMENSION : 76
TOUR SECTION
42
64
22
62
1
73
33
63
16
3
44
32
9
39
72
58
12
40
17
51
6
68
4
75
76
26
67
34
46
52
27
45
29
48
30
2
74
28
61
21
47
36
69
71
60
70
20
37
5
15
57
13
54
19
35
8
7
53
14
59
11
66
65
38
10
31
55
25
50
18
24
49
23
56
41
43
42
